9,0	0,0	10,7	19,1	0,0	0,0	0,0	0,0	0,0	12,8
16,1	10,3	0,0	15,7	19,4	0,0	0,0	10,9	0,0	0,0
0,0	0,0	9,6	0,0	8,9	8,6	0,0	0,0	9,0	0,0
9,9	0,0	7,6	0,0	0,0	0,0	11,7	0,0	0,0	0,0
0,0	6,1	0,0	12,8	7,6	0,0	0,0	7,7	0,0	0,0
0,0	14,9	10,0	0,0	15,8	10,7	0,0	0,0	11,4	0,0
0,0	13,5	0,0	13,0	0,0	0,0	8,6	0,0	0,0	7,1
12,0	0,0	7,1	0,0	0,0	0,0	0,0	0,0	0,0	10,3
0,0	11,4	0,0	13,4	17,5	0,0	0,0	15,5	0,0	0,0
0,0	0,0	5,3	0,0	0,0	6,6	8,2	0,0	0,0	7,9
0,0	9,6	0,0	0,0	5,5	0,0	18,9	0,0	11,4	16,9
9,2	0,0	14,4	0,0	10,6	0,0	20,0	12,5	15,8	0,0
0,0	12,9	0,0	0,0	0,0	13,0	0,0	16,1	9,3	8,4
15,9	9,1	18,4	0,0	0,0	11,8	0,0	6,5	10,5	0,0
8,8	0,0	7,2	0,0	8,7	8,3	18,5	13,2	0,0	0,0
0,0	19,7	0,0	15,0	0,0	7,3	0,0	7,1	0,0	0,0
11,7	0,0	15,0	12,3	5,9	0,0	0,0	17,5	0,0	0,0
0,0	0,0	19,5	0,0	0,0	18,1	7,4	0,0	7,6	12,8
9,9	0,0	0,0	13,3	9,5	11,7	14,9	10,5	0,0	11,8
0,0	18,2	0,0	18,1	0,0	0,0	19,9	0,0	11,4	14,2
									
4,2	3,6	2,7	2,6	2,8	4,1	2,7	3,3	3,6	4,3
